2025-10-19 00:27:34,937 - INFO - 📌 第一个 epoch：默认所有模块使用 checkpoint
2025-10-19 00:27:45,382 - INFO - Epoch 1 completed in 10.461887 seconds
2025-10-19 00:27:48,311 - INFO - torch.cuda.max_memory_reserved() : 9.49609375
2025-10-19 00:27:58,648 - INFO - 
[🔁 拟合反向传播时间模型]
2025-10-19 00:27:58,649 - INFO - 总反向传播时间: 10.234632s
2025-10-19 00:27:58,649 - INFO - 拟合模型: backward_total ≈ 2 × (A + B) + b
2025-10-19 00:27:58,649 - INFO - A = 7.159228, B = 0.446136, b = 2.629268s
2025-10-19 00:27:58,694 - INFO - Set parameter LicenseID to value 2706656
2025-10-19 00:27:58,723 - INFO - Set parameter LogToConsole to value 1
2025-10-19 00:27:58,724 - INFO - Set parameter LogFile to value ""
2025-10-19 00:27:58,724 - INFO - Set parameter Threads to value 12
2025-10-19 00:27:58,724 - INFO - Set parameter TimeLimit to value 3600
2025-10-19 00:27:58,724 - INFO - Set parameter OptimalityTol to value 0.0001
2025-10-19 00:27:58,724 - INFO - Set parameter IntFeasTol to value 1e-05
2025-10-19 00:27:58,725 - INFO - Set parameter StartNodeLimit to value 10000000
2025-10-19 00:27:58,783 - INFO - Set parameter TimeLimit to value 3600
2025-10-19 00:27:58,783 - INFO - 
2025-10-19 00:27:58,783 - INFO - 
2025-10-19 00:27:58,783 - INFO - Restarting solve
2025-10-19 00:27:58,783 - INFO - 
2025-10-19 00:27:58,783 - INFO - 
2025-10-19 00:27:58,785 - INFO - Gurobi Optimizer version 12.0.3 build v12.0.3rc0 (linux64 - "Ubuntu 20.04.6 LTS")
2025-10-19 00:27:58,785 - INFO - 
2025-10-19 00:27:58,785 - INFO - CPU model: Intel(R) Xeon(R) Platinum 8260 CPU @ 2.40GHz, instruction set [SSE2|AVX|AVX2|AVX512]
2025-10-19 00:27:58,785 - INFO - Thread count: 48 physical cores, 96 logical processors, using up to 12 threads
2025-10-19 00:27:58,785 - INFO - 
2025-10-19 00:27:58,785 - INFO - Non-default parameters:
2025-10-19 00:27:58,785 - INFO - TimeLimit  3600
2025-10-19 00:27:58,785 - INFO - OptimalityTol  0.0001
2025-10-19 00:27:58,785 - INFO - StartNodeLimit  10000000
2025-10-19 00:27:58,785 - INFO - Threads  12
2025-10-19 00:27:58,785 - INFO - 
2025-10-19 00:27:58,785 - INFO - Optimize a model with 5603 rows, 3584 columns and 15200 nonzeros
2025-10-19 00:27:58,786 - INFO - Model fingerprint: 0xccb11ff5
2025-10-19 00:27:58,786 - INFO - Variable types: 1024 continuous, 2560 integer (2560 binary)
2025-10-19 00:27:58,786 - INFO - Coefficient statistics:
2025-10-19 00:27:58,786 - INFO -   Matrix range     [1e+00, 4e+15]
2025-10-19 00:27:58,786 - INFO -   Objective range  [1e+05, 1e+06]
2025-10-19 00:27:58,786 - INFO -   Bounds range     [1e+00, 2e+16]
2025-10-19 00:27:58,786 - INFO -   RHS range        [1e+00, 2e+16]
2025-10-19 00:27:58,786 - INFO - Warning: Model contains large matrix coefficient range
2025-10-19 00:27:58,786 - INFO - Warning: Model contains large rhs
2025-10-19 00:27:58,786 - INFO - Warning: Model contains large bounds
2025-10-19 00:27:58,786 - INFO -          Consider reformulating model or setting NumericFocus parameter
2025-10-19 00:27:58,786 - INFO -          to avoid numerical issues.
2025-10-19 00:27:58,801 - INFO - Presolve removed 4283 rows and 1964 columns
2025-10-19 00:27:58,801 - INFO - Presolve time: 0.01s
2025-10-19 00:27:58,801 - INFO - Presolved: 1320 rows, 1620 columns, 4514 nonzeros
2025-10-19 00:27:58,802 - INFO - Variable types: 0 continuous, 1620 integer (1095 binary)
2025-10-19 00:27:58,814 - INFO - 
2025-10-19 00:27:58,814 - INFO - Root relaxation: objective 2.233145e+07, 487 iterations, 0.00 seconds (0.00 work units)
2025-10-19 00:27:58,825 - INFO - 
2025-10-19 00:27:58,825 - INFO -     Nodes    |    Current Node    |     Objective Bounds      |     Work
2025-10-19 00:27:58,825 - INFO -  Expl Unexpl |  Obj  Depth IntInf | Incumbent    BestBd   Gap | It/Node Time
2025-10-19 00:27:58,825 - INFO - 
2025-10-19 00:27:58,825 - INFO -      0     0 2.2331e+07    0   74          - 2.2331e+07      -     -    0s
2025-10-19 00:27:58,867 - INFO -      0     0 2.2335e+07    0  119          - 2.2335e+07      -     -    0s
2025-10-19 00:27:58,881 - INFO -      0     0 2.2336e+07    0  151          - 2.2336e+07      -     -    0s
2025-10-19 00:27:58,893 - INFO -      0     0 2.2338e+07    0  139          - 2.2338e+07      -     -    0s
2025-10-19 00:27:58,900 - INFO -      0     0 2.2339e+07    0  202          - 2.2339e+07      -     -    0s
2025-10-19 00:27:58,908 - INFO -      0     0 2.2340e+07    0  187          - 2.2340e+07      -     -    0s
2025-10-19 00:27:58,921 - INFO -      0     0 2.2340e+07    0  265          - 2.2340e+07      -     -    0s
2025-10-19 00:27:58,972 - INFO -      0     2 2.2344e+07    0  265          - 2.2344e+07      -     -    0s
2025-10-19 00:27:59,004 - INFO - *  189   198              14    2.254286e+07 2.2373e+07  0.75%   6.4    0s
2025-10-19 00:27:59,004 - INFO - *  192   198              11    2.239622e+07 2.2373e+07  0.10%   6.5    0s
2025-10-19 00:27:59,004 - INFO - *  201   198              16    2.238737e+07 2.2373e+07  0.06%   7.0    0s
2025-10-19 00:27:59,015 - INFO - *  272    91              15    2.237298e+07 2.2373e+07  0.00%   5.5    0s
2025-10-19 00:27:59,016 - INFO - 
2025-10-19 00:27:59,016 - INFO - Cutting planes:
2025-10-19 00:27:59,016 - INFO -   Cover: 41
2025-10-19 00:27:59,016 - INFO -   MIR: 1
2025-10-19 00:27:59,016 - INFO -   GUB cover: 1
2025-10-19 00:27:59,017 - INFO - 
2025-10-19 00:27:59,017 - INFO - Explored 327 nodes (2438 simplex iterations) in 0.23 seconds (0.18 work units)
2025-10-19 00:27:59,017 - INFO - Thread count was 12 (of 96 available processors)
2025-10-19 00:27:59,017 - INFO - 
2025-10-19 00:27:59,017 - INFO - Solution count 4: 2.2373e+07 2.23874e+07 2.23962e+07 2.25429e+07 
2025-10-19 00:27:59,017 - INFO - 
2025-10-19 00:27:59,017 - INFO - Optimal solution found (tolerance 1.00e-04)
2025-10-19 00:27:59,017 - INFO - Warning: max constraint violation (2.0000e+00) exceeds tolerance
2025-10-19 00:27:59,017 - INFO -          (possibly due to large matrix coefficients)
2025-10-19 00:27:59,017 - INFO - Best objective 2.237297500000e+07, best bound 2.237297500000e+07, gap 0.0000%
2025-10-19 00:27:59,029 - INFO - 规划前的显存GB：16.0
2025-10-19 00:27:59,029 - INFO - 规划后的显存GB：15.18621301651001
2025-10-19 00:27:59,029 - INFO - ✅ 最优策略：[1, 1, 1, 1, 1, 1, 1, 1, 0, 1, 1, 0, 1, 0, 0, 1]
2025-10-19 00:27:59,029 - INFO - 📌 checkpoint 的欧氏长度:, []
2025-10-19 00:27:59,029 - INFO - 📌 checkpoint 的余弦长度:, [14, 57, 86, 100]
2025-10-19 00:27:59,029 - INFO - 💾 最终显存峰值：%.2f MB % 19807.36321258545
2025-10-19 00:27:59,037 - INFO - Epoch 2 completed in 10.725173 seconds
2025-10-19 00:27:59,037 - INFO - torch.cuda.max_memory_reserved() : 9.49609375
2025-10-19 00:28:06,753 - INFO - Epoch 3 completed in 7.715314 seconds
2025-10-19 00:28:06,754 - INFO - 
====================== [第1个 Epoch 收集统计数据] ======================
2025-10-19 00:28:06,754 - INFO - 
🔍 EUCLIDEAN modules:
2025-10-19 00:28:06,754 - INFO - [Shapelet  14] forward_avg=0.008436s over 16 calls | peak=733.24MB | final=0.00MB
2025-10-19 00:28:06,754 - INFO - [Shapelet  28] forward_avg=0.009293s over 16 calls | peak=1257.07MB | final=0.00MB
2025-10-19 00:28:06,754 - INFO - [Shapelet  42] forward_avg=0.011955s over 16 calls | peak=1641.29MB | final=0.00MB
2025-10-19 00:28:06,754 - INFO - [Shapelet  57] forward_avg=0.013048s over 16 calls | peak=1901.19MB | final=0.00MB
2025-10-19 00:28:06,754 - INFO - [Shapelet  71] forward_avg=0.013770s over 16 calls | peak=2000.96MB | final=0.00MB
2025-10-19 00:28:06,754 - INFO - [Shapelet  86] forward_avg=0.013289s over 16 calls | peak=1952.37MB | final=0.00MB
2025-10-19 00:28:06,754 - INFO - [Shapelet 100] forward_avg=0.013072s over 16 calls | peak=1765.30MB | final=0.00MB
2025-10-19 00:28:06,754 - INFO - [Shapelet 115] forward_avg=0.011525s over 16 calls | peak=1411.02MB | final=0.00MB
2025-10-19 00:28:06,754 - INFO - 
🔍 COSINE modules:
2025-10-19 00:28:06,754 - INFO - [Shapelet  14] forward_avg=0.004541s over 16 calls | peak=446.59MB | final=0.00MB
2025-10-19 00:28:06,754 - INFO - [Shapelet  28] forward_avg=0.004872s over 16 calls | peak=783.97MB | final=0.00MB
2025-10-19 00:28:06,754 - INFO - [Shapelet  42] forward_avg=0.006453s over 16 calls | peak=1029.18MB | final=0.00MB
2025-10-19 00:28:06,754 - INFO - [Shapelet  57] forward_avg=0.007330s over 16 calls | peak=1190.34MB | final=0.00MB
2025-10-19 00:28:06,754 - INFO - [Shapelet  71] forward_avg=0.007693s over 16 calls | peak=1244.70MB | final=0.00MB
2025-10-19 00:28:06,754 - INFO - [Shapelet  86] forward_avg=0.007994s over 16 calls | peak=1199.87MB | final=0.00MB
2025-10-19 00:28:06,754 - INFO - [Shapelet 100] forward_avg=0.008354s over 16 calls | peak=1063.27MB | final=0.00MB
2025-10-19 00:28:06,754 - INFO - [Shapelet 115] forward_avg=0.007525s over 16 calls | peak=815.09MB | final=0.00MB
2025-10-19 00:28:06,754 - INFO - 
🔍 CROSS modules:
2025-10-19 00:28:06,754 - INFO - [Shapelet  14] forward_avg=0.001173s over 16 calls
2025-10-19 00:28:06,754 - INFO - [Shapelet  28] forward_avg=0.001642s over 16 calls
2025-10-19 00:28:06,754 - INFO - [Shapelet  42] forward_avg=0.001582s over 16 calls
2025-10-19 00:28:06,754 - INFO - [Shapelet  57] forward_avg=0.001932s over 16 calls
2025-10-19 00:28:06,754 - INFO - [Shapelet  71] forward_avg=0.002164s over 16 calls
2025-10-19 00:28:06,754 - INFO - [Shapelet  86] forward_avg=0.001947s over 16 calls
2025-10-19 00:28:06,754 - INFO - [Shapelet 100] forward_avg=0.002020s over 16 calls
2025-10-19 00:28:06,754 - INFO - [Shapelet 115] forward_avg=0.001482s over 16 calls
2025-10-19 00:28:06,755 - INFO - 
💾 模型第一次反向传播阶段的显存峰值（所有模块中的最大值）: 13773.92 MB
2025-10-19 00:28:06,755 - INFO - 
💾 模型初始显存: 128.80 MB
2025-10-19 00:28:06,755 - INFO - =======================================================================

2025-10-19 00:28:06,755 - INFO - torch.cuda.max_memory_reserved() : 18.318359375
2025-10-19 00:28:14,801 - INFO - Epoch 4 completed in 8.045826 seconds
2025-10-19 00:28:14,802 - INFO - torch.cuda.max_memory_reserved() : 18.318359375
2025-10-19 00:28:22,683 - INFO - Epoch 5 completed in 7.880625 seconds
2025-10-19 00:28:22,683 - INFO - torch.cuda.max_memory_reserved() : 18.318359375
2025-10-19 00:28:30,800 - INFO - Epoch 6 completed in 8.115767 seconds
2025-10-19 00:28:30,800 - INFO - torch.cuda.max_memory_reserved() : 18.318359375
2025-10-19 00:28:38,643 - INFO - Epoch 7 completed in 7.842127 seconds
2025-10-19 00:28:38,643 - INFO - torch.cuda.max_memory_reserved() : 18.318359375
2025-10-19 00:28:46,646 - INFO - Epoch 8 completed in 8.002213 seconds
2025-10-19 00:28:46,646 - INFO - torch.cuda.max_memory_reserved() : 18.318359375
2025-10-19 00:28:54,402 - INFO - Epoch 9 completed in 7.755537 seconds
2025-10-19 00:28:54,402 - INFO - torch.cuda.max_memory_reserved() : 18.318359375
2025-10-19 00:29:02,758 - INFO - Epoch 10 completed in 8.354774 seconds
2025-10-19 00:29:05,562 - INFO - torch.cuda.max_memory_reserved() : 18.318359375
2025-10-19 00:29:05,563 - INFO - !!!采用策略后的几个epoch 平均时间:7.964022994041443
2025-10-19 00:29:05,563 - INFO - 



